1 52 29 16 1 
1 37 17 38 23 45 3 53 1 
1 35 32 12 5 22 42 24 28 40 4 55 10 14 13 54 1 
1 56 34 59 18 51 58 33 7 1 
1 39 20 19 31 2 6 15 49 1 
1 47 43 25 48 46 1 
1 8 11 9 44 30 62 41 21 1 
1 60 27 36 50 26 61 57 1 
